100
128
55
3
18
2
55
27
60
6
24
49
25
16
44
13
30
56
36
23
51
8
43
19
60
4
49
33
58
25
30
29
37
26
55
63
1
16
1
14
3
31
13
16
1
48
23
31
2
17
24
52
12
40
22
17
35
43
50
25
29
14
45
64
2
64
40
49
12
35
47
16
2
22
52
53
16
14
27
37
23
1
1
28
34
20
21
27
30
48
2
43
18
2
2
1
62
1
35
30
3
64